91
150
105	5
104	3
103	8
102	3
101	3
100	5
99	4
98	4
97	6
96	4
95	7
94	2
93	2
92	5
91	3
90	3
89	3
88	3
87	3
86	5
85	6
84	2
83	2
82	6
81	3
80	6
79	7
78	1
77	5
76	5
75	6
74	11
73	4
72	4
71	5
70	3
69	10
68	5
67	5
66	4
65	3
64	4
63	4
62	2
61	5
60	6
59	1
58	7
57	4
56	3
55	7
54	4
53	4
52	4
51	4
50	4
49	6
48	4
47	3
46	8
45	1
44	5
43	1
42	5
41	3
40	5
39	11
38	5
37	6
36	5
35	3
34	2
33	4
32	4
31	3
30	3
29	3
28	4
27	7
26	3
25	5
24	2
23	4
22	2
21	6
20	5
19	7
18	1
17	4
16	5
15	8
